&FORCE_EVAL
  METHOD Quickstep
  STRESS_TENSOR ANALYTICAL
  &DFT
    BASIS_SET_FILE_NAME basis/BASIS_MOLOPT
    POTENTIAL_FILE_NAME basis/GTH_POTENTIALS 
#    CHARGE -1
#    UKS  T
#    WFN_RESTART_FILE_NAME ./q-28w-RESTART.wfn
    &MGRID
      CUTOFF 400
#      NGRIDS 5
    &END MGRID
#    &KPOINTS
#      SCHEME MONKHORST-PACK 2 2 1
#      SYMMETRY on
#      EPS_GEO 1.0E-8
#      FULL_GRID on
#      VERBOSE on
#      PARALLEL_GROUP_SIZE 0
#    &END KPOINTS
    &QS
      EPS_DEFAULT 1.0E-13
      EXTRAPOLATION ASPC 
      EXTRAPOLATION_ORDER 2
    &END QS
    &SCF 
      SCF_GUESS  RESTART 
      EPS_SCF 3.0E-7
      MAX_SCF 500 
      ADDED_MOS 500 
      CHOLESKY INVERSE 
      &SMEAR  ON 
        METHOD FERMI_DIRAC 
        ELECTRONIC_TEMPERATURE [K] 300 
      &END SMEAR 
      &DIAGONALIZATION 
        ALGORITHM STANDARD 
      &END DIAGONALIZATION 
      &MIXING 
          METHOD BROYDEN_MIXING 
          ALPHA   0.3 
          BETA    1.5 
          NBROYDEN  12 
      &END 
      &PRINT 
        &RESTART 
          &EACH 
              QS_SCF 50 
          &END 
          ADD_LAST NUMERIC 
        &END 
      &END 
    &END SCF 
    &XC
      &XC_FUNCTIONAL PBE 
      &END XC_FUNCTIONAL
        &VDW_POTENTIAL
          DISPERSION_FUNCTIONAL PAIR_POTENTIAL
          &PAIR_POTENTIAL
            TYPE DFTD3
            PARAMETER_FILE_NAME basis/dftd3.dat
            REFERENCE_FUNCTIONAL PBE
          &END PAIR_POTENTIAL
        &END VDW_POTENTIAL
    &END XC
#    SURFACE_DIPOLE_CORRECTION .TRUE.
    &PRINT
#      &E_DENSITY_CUBE
#        ADD_LAST NUMERIC
#        &EACH
#          GEO_OPT 0
#        &END EACH
#      &END E_DENSITY_CUBE
#      &PDOS
#        COMPONENTS
#        NLUMO -1 
#        ADD_LAST  NUMERIC
#        &EACH
#          GEO_OPT 0
#        &END EACH
#      &END PDOS
#      &MO_CUBES
#        NHOMO -1
#        NLUMO -1
#        WRITE_CUBE F
#        ADD_LAST NUMERIC
#        &EACH
#          MD 50
#          GEO_OPT 0
#        &END EACH
#      &END MO_CUBES
      &V_HARTREE_CUBE ON
         STRIDE 8 8 1
         APPEND T
#         &EACH
#           MD 50
#          GEO_OPT 0
#         &END EACH
#        ADD_LAST NUMERIC
      &END V_HARTREE_CUBE
    &END PRINT
  &END DFT

  &SUBSYS
    &CELL
      ABC [angstrom]   11.246 11.246 35.940   
      ALPHA_BETA_GAMMA  90 90 90
    &END CELL
    &COORD
      @include coord.xyz
    &END COORD
    &KIND H
      BASIS_SET DZVP-MOLOPT-SR-GTH
      POTENTIAL GTH-PBE-q1
    &END KIND
    &KIND O
      BASIS_SET DZVP-MOLOPT-SR-GTH
      POTENTIAL GTH-PBE-q6
    &END KIND
    &KIND Pt
      BASIS_SET  DZVP-A5-Q10-323-MOL-T1-DERIVED_SET-1
      POTENTIAL  GTH-PBE-q10
    &END KIND
  &END SUBSYS
&END FORCE_EVAL

&GLOBAL
  PROJECT pt
  RUN_TYPE ENERGY
  PRINT_LEVEL medium 
  WALLTIME 345000
&END GLOBAL

