    &END COORD
    &KIND H
      BASIS_SET DZVP-MOLOPT-SR-GTH
      POTENTIAL GTH-PBE-q1
    &END KIND
    &KIND O
      BASIS_SET DZVP-MOLOPT-SR-GTH
      POTENTIAL GTH-PBE-q6
    &END KIND
    &KIND Pt
      BASIS_SET  DZVP-A5-Q10-323-MOL-T1-DERIVED_SET-1
      POTENTIAL  GTH-PBE-q10
    &END KIND
  &END SUBSYS
&END FORCE_EVAL

&GLOBAL
  PROJECT pt
  RUN_TYPE ENERGY
  PRINT_LEVEL medium 
  WALLTIME 345000
&END GLOBAL

