 H  O Pt 
 1.0000000000000000
    16.8689999999999998    0.0000000000000000    0.0000000000000000
    -8.4344999999999999   14.6089825363999992    0.0000000000000000
     0.0000000000000000    0.0000000000000000   41.4780000000000015
   H   O  Pt
 460 230 216
Cartesian
  0.7697610000000000  0.6453730000000000 30.7584000000000017
 -7.8907100000000003 14.0675000000000008 31.8018999999999998
  3.5986500000000001  7.9821700000000000 20.4796000000000014
  5.0986000000000002  7.7824099999999996 20.5735999999999990
  1.3316900000000000  9.2432300000000005 16.8471000000000011
  0.0409330000000000  9.8725900000000006 17.7785000000000011
 -1.4429799999999999  6.4929600000000001 24.6554000000000002
 -0.4082200000000000  5.6007400000000001 23.9908000000000001
  3.0309400000000002 11.6556999999999995 29.7305999999999990
  3.7580399999999998 11.9654000000000007 31.0438000000000009
  3.2108099999999999  5.1692499999999999 16.4175000000000004
  2.6984200000000000  5.8511899999999999 15.1019000000000005
  5.6047399999999996 14.4309999999999992 15.0713000000000008
 15.1760000000000002  0.8080120000000000 14.9708000000000006
 13.7970000000000006  4.2046500000000000 18.4141000000000012
 12.4466999999999999  3.4872399999999999 18.7623999999999995
 15.1184999999999992  2.5466700000000002 23.6002000000000010
 -1.1816899999999999  3.8205900000000002 24.1603999999999992
  8.4878599999999995  1.3600800000000000 28.4682999999999993
  7.3122999999999996  2.3362400000000001 28.5553999999999988
  1.2233799999999999 10.0364000000000004 14.8816000000000006
  2.7704100000000000 10.0444999999999993 14.6983999999999995
 -2.1394899999999999  4.3853600000000004 38.4680000000000035
 -1.3670899999999999  4.9677699999999998 39.4971000000000032
  1.8648600000000000  7.8592000000000004 14.7984000000000009
  0.6724240000000000  6.8399900000000002 14.7769999999999992
  4.8415499999999998  3.0891400000000000 27.4544999999999995
  4.1128999999999998  2.4574199999999999 26.2793999999999990
  0.5439550000000000 13.3332999999999995 25.4168999999999983
  9.0796500000000009  0.2333000000000000 25.4984000000000002
  3.1498699999999999  0.2436420000000000 37.3686000000000007
  2.1161599999999998  0.9254900000000000 36.3489999999999966
  1.0785899999999999 12.7680000000000007 29.8042000000000016
  2.4144399999999999 13.4801000000000002 29.6163999999999987
  0.9389680000000000  0.2988680000000000 18.8892999999999986
 -0.1323670000000000  0.8935250000000000 19.8944000000000010
  5.7718400000000001 13.4703999999999997 39.1388999999999996
  6.9117800000000003 12.5577000000000005 39.4829000000000008
 -2.8257200000000000 13.0739000000000001 39.1253999999999991
 -1.4705699999999999 13.2608999999999995 39.9810000000000016
  1.3586199999999999  0.5641800000000000 25.1024999999999991
 -6.5265500000000003 14.1152999999999995 26.2092999999999989
  5.0334199999999996  7.9360700000000000 14.2950999999999997
  6.2339200000000003  8.8406500000000001 14.9164999999999992
  0.6083060000000000  4.1076600000000001 26.7209000000000003
 -0.0927993000000000  5.2704899999999997 25.7811999999999983
  5.1755399999999998 14.1931999999999992 29.9043999999999990
  4.4845400000000000 12.9841999999999995 29.2770000000000010
  1.6451400000000000  5.4319199999999999 22.5949999999999989
  0.4106610000000000  4.7263599999999997 22.0834000000000010
 -0.9313170000000000 10.4704999999999995 37.7049999999999983
 -0.9250800000000000 11.4408999999999992 38.9468000000000032
  5.5991000000000000  1.7788200000000001 16.2982000000000014
  5.1435800000000000  2.6072199999999999 17.6256999999999984
  1.0438000000000001  2.4977999999999998 35.3858000000000033
  0.6381110000000000  2.3379900000000000 36.8432000000000031
 10.0259999999999998  6.7288899999999998 16.2312000000000012
 10.5547000000000004  6.2856199999999998 17.5930000000000000
  6.4388100000000001 12.3101000000000003 20.3839000000000006
  7.3568899999999999 11.9829000000000008 21.7407000000000004
 -5.0391399999999997 13.0631000000000004 39.5163999999999973
 -4.4475100000000003 12.4580000000000002 38.2293000000000021
  7.1592799999999999  8.4511000000000003 20.4664999999999999
  7.0638600000000000  9.1341999999999999 18.9903000000000013
  2.7961900000000002 13.7501999999999995 19.5580999999999996
 10.6913999999999998  0.1085570000000000 20.7281000000000013
  5.2536300000000002 13.0330999999999992 22.0485000000000007
  3.9947800000000000 13.7584999999999997 21.5233999999999988
 11.5297000000000001  1.4796199999999999 19.0014000000000003
 10.5785000000000000  2.4466000000000001 18.4014999999999986
  8.3511799999999994  6.0681000000000003 30.6113999999999997
  9.3053399999999993  5.3823100000000004 31.6194999999999986
  5.7298000000000000  0.1227780000000000 14.4499999999999993
 -2.1477499999999998 13.7644000000000002 15.6372000000000000
 11.5477000000000007  7.6553100000000001 21.9326000000000008
 11.5360999999999994  6.1376900000000001 22.4569000000000010
  2.6549700000000001 11.3729999999999993 18.6894999999999989
  1.6144700000000001 12.3823000000000008 17.9613000000000014
 15.2154000000000007  0.0695230000000000 31.7880000000000003
 14.0569000000000006  1.0027999999999999 32.2378000000000000
  7.8239200000000002  4.7173400000000001 25.2862000000000009
  7.6761299999999997  5.9114100000000001 26.2536999999999985
 -2.5879599999999998 11.0768000000000004 34.4099999999999966
 -2.5735299999999999 12.1966999999999999 35.3220000000000027
  8.0084700000000009  5.7628599999999999 16.4371000000000009
  7.3372999999999999  7.0840199999999998 16.3196000000000012
 -2.9933100000000001 13.4723000000000006 24.2092999999999989
 -4.1276599999999997 12.8706999999999994 23.3088000000000015
  9.2248500000000000 10.3497000000000003 28.0095999999999989
  7.9040999999999997  9.9291300000000007 27.2591000000000001
  5.9423700000000004  9.8840299999999992 32.8902000000000001
  5.6481899999999996  8.4046800000000008 32.4540999999999968
  6.3476699999999999  2.9130099999999999 33.3631999999999991
  6.5554899999999998  4.1960100000000002 34.3374000000000024
 -3.9833200000000000 13.2921999999999993 20.8873999999999995
 -5.2879300000000002 14.1790000000000003 21.4806999999999988
  6.9965500000000000 10.3362999999999996 31.5138999999999996
  6.5541099999999997 11.5013000000000005 30.5579000000000001
  8.5820000000000007  3.1531600000000002 16.9816000000000003
  8.2046600000000005  2.1270099999999998 18.2119999999999997
 15.3315000000000001  1.2382700000000000 27.1522000000000006
 15.1119000000000003  2.4646900000000000 26.1296999999999997
  4.2001600000000003  6.6559200000000001 32.4881000000000029
  4.3278999999999996  7.6103199999999998 33.7546000000000035
  8.4616699999999998  0.7289610000000000 21.9817999999999998
  9.7826699999999995  1.6284799999999999 22.1111000000000004
  3.9498400000000000  9.7559600000000000 17.7215999999999987
  3.9540500000000001 10.9860000000000007 16.8353000000000002
 -3.9455000000000000  9.2315699999999996 22.7224000000000004
 -5.0037900000000004  9.7128999999999994 21.6414000000000009
  0.4212240000000000  6.1260700000000003 19.1510999999999996
  0.9623720000000000  4.7785399999999996 19.3731000000000009
 13.9842999999999993  3.1340900000000000 28.2829000000000015
 13.4620999999999995  4.2798299999999996 29.2695000000000007
  2.6190699999999998 10.2102000000000004 31.3292999999999999
  3.0088499999999998  9.0044699999999995 32.5155000000000030
 11.0122000000000000  8.6058000000000003 38.0472999999999999
 10.5945000000000000  8.5385600000000004 39.5865000000000009
 12.1189000000000000  5.8311500000000001 18.6814000000000000
 11.5549999999999997  6.6937699999999998 19.8582000000000001
  2.3235999999999999  9.2820000000000000 29.0132000000000012
  1.0065000000000000 10.1272000000000002 28.5621000000000009
  3.1597200000000001 10.9573000000000000 36.0133999999999972
  3.8882900000000000 12.2525999999999993 36.6548000000000016
  7.9578699999999998  7.4855700000000001 36.2937999999999974
  9.2980300000000007  6.8885500000000004 35.8235000000000028
  4.3387300000000000 10.5687999999999995 37.9981999999999971
  5.2672400000000001 10.7812999999999999 39.1899999999999977
 -1.2319300000000000 12.9833999999999996 37.0133000000000010
 -0.9886350000000000 13.7148000000000003 35.7744000000000000
  3.8416000000000001  5.0449000000000002 27.2785000000000011
  2.3898700000000002  5.3068499999999998 26.6525999999999996
  3.0238499999999999 10.4306000000000001 39.4547000000000025
  1.4881700000000000 10.9765999999999995 39.4093000000000018
  8.9536899999999999  7.8021200000000004 23.1344999999999992
  8.0330899999999996  7.8754499999999998 24.3590000000000018
  6.7175900000000004 13.7745999999999995 28.4087999999999994
  7.8466800000000001 14.2904999999999998 29.5122999999999998
 11.5723000000000003  2.6052599999999999 15.4254999999999995
 10.6133000000000006  1.7732699999999999 16.2777999999999992
 10.9478000000000009  7.3494400000000004 28.4039000000000001
 10.0823000000000000  7.0107999999999997 29.6705000000000005
  8.1479499999999998  5.5939100000000002 21.0279999999999987
  9.4725999999999999  6.0890700000000004 21.8997999999999990
  8.9869400000000006  7.9693199999999997 31.8602999999999987
  8.1322299999999998  8.5697500000000009 32.9136999999999986
 -5.6132700000000000 12.0017999999999994 21.5470000000000006
  9.9878999999999998 11.1380999999999997 22.1994000000000007
  8.4274500000000003  6.2627800000000002 38.0825999999999993
  7.7970899999999999  6.3532099999999998 39.4594000000000023
  4.1574799999999996  7.6453400000000000 24.2734999999999985
  3.7949400000000000  6.3894700000000002 25.4433000000000007
  3.9526300000000001  4.4823399999999998 31.7678000000000011
  5.3266700000000000  4.6185700000000001 32.4395999999999987
  5.1864100000000004  8.5923400000000001 39.3228999999999971
  5.2984999999999998  7.0980900000000000 39.1906000000000034
 -1.4575199999999999  3.8835899999999999 21.4326000000000008
 -0.7231550000000000  2.5038700000000000 21.6228000000000016
 -0.8257630000000000  7.9025800000000004 39.2907000000000011
  0.6315240000000000  8.4111300000000000 39.2387000000000015
  6.8921400000000004  4.1879499999999998 27.3626000000000005
  6.3896699999999997  4.2053799999999999 28.9605999999999995
  0.1613090000000000 12.4450000000000003 16.3350000000000009
  1.0118700000000000 13.7467000000000006 15.8793000000000006
  6.0693500000000000  8.9602400000000006 27.9829000000000008
  5.5305799999999996 10.0079999999999991 27.0485000000000007
 10.2718000000000007  8.9165299999999998 33.7997999999999976
 -5.6500599999999999  9.9796999999999993 34.3376999999999981
 12.7181999999999995  6.7953000000000001 26.7790999999999997
 11.5090000000000003  7.6182999999999996 26.0452000000000012
  7.5602700000000000 10.8629999999999995 15.1747999999999994
  7.6451000000000002 10.0398999999999994 16.4811000000000014
  2.9312499999999999  0.0937030000000000 29.9857000000000014
 -4.8518100000000004 13.5571000000000002 29.1603999999999992
  4.6636899999999999 12.0555000000000003 25.8575000000000017
  3.3805600000000000 11.1879000000000008 26.3385999999999996
 11.6057000000000006  5.9265499999999998 32.9230999999999980
 10.8341999999999992  4.6631000000000000 33.3911999999999978
  4.3120099999999999  2.0237599999999998 38.5850000000000009
  3.4219599999999999  1.2559600000000000 39.5827999999999989
  3.8116400000000001 13.9742999999999995 14.0160999999999998
 11.8696000000000002  0.4222630000000000 15.0533000000000001
 -3.0874700000000002  8.1755999999999993 28.4649000000000001
 -2.1101100000000002  7.1057399999999999 28.0169999999999995
  5.7138499999999999  8.8269900000000003 30.3415999999999997
  4.7136800000000001  8.3875399999999996 29.3221999999999987
  5.3925299999999998  1.7990999999999999 23.8687000000000005
  5.2163500000000003  2.3496800000000002 22.4386000000000010
 -1.4090900000000000  7.7214499999999999 14.8824000000000005
 -1.1029199999999999  6.8533799999999996 16.1707000000000001
  2.9786600000000001 14.2599999999999998 36.0992000000000033
  2.5742500000000001 13.8345000000000002 37.4913999999999987
  1.8704300000000000  4.3610100000000003 30.8211000000000013
  1.8097099999999999  3.4558900000000001 32.0071000000000012
 13.5180000000000007  4.8859500000000002 22.2725000000000009
 13.4873999999999992  4.5838599999999996 20.6664999999999992
 -6.8177099999999999 13.2178000000000004 36.3562000000000012
  8.7943499999999997 12.4000000000000004 35.7616999999999976
 -6.7297799999999999 12.4269999999999996 32.4155999999999977
 -6.0437700000000003 13.5715000000000003 33.3136999999999972
 11.0454000000000008  1.3219000000000001 26.0850000000000009
 10.3923000000000005  2.5896100000000000 26.3302000000000014
 -4.5113200000000004 11.9678000000000004 27.4707000000000008
 -3.2270900000000000 12.8648000000000007 27.2994999999999983
 -1.0746100000000001  9.7317900000000002 27.5503999999999998
 -0.5978620000000000  9.0849899999999995 26.1833999999999989
  1.3536500000000000  1.7570600000000001 26.8124000000000002
  2.2412000000000001  2.8803200000000002 27.1668999999999983
 -3.2318300000000000  9.8844600000000007 31.6200000000000010
 -3.1411199999999999 11.4116000000000000 31.6117999999999988
 10.4692000000000007  1.1063400000000001 31.7700999999999993
 10.0599000000000007  1.9347700000000001 30.4356000000000009
  1.5846000000000000  8.4586699999999997 21.0840999999999994
  1.4247600000000000  8.8591200000000008 19.5443999999999996
  8.9503100000000000  7.4798700000000000 14.1684999999999999
  8.6350599999999993  8.7069500000000009 15.1781000000000006
 -0.7275860000000000  5.8894099999999998 33.2334999999999994
 -1.6798000000000000  4.6378899999999996 33.5649000000000015
 13.7248000000000001  1.6986399999999999 21.9335999999999984
 13.4054000000000002  1.5790700000000000 23.5103000000000009
 -3.5360299999999998 10.9213000000000005 24.3752999999999993
 -4.4600799999999996  9.6490899999999993 24.8094000000000001
 10.8096999999999994  5.2751099999999997 37.9039000000000001
 10.2629999999999999  5.6105700000000001 39.3699000000000012
 -0.3597090000000000  2.4223900000000000 14.6919000000000004
 -1.7891500000000000  3.0944300000000000 14.7703000000000007
 -0.3148600000000000 11.5889000000000006 14.4297000000000004
 -0.8186250000000000 10.4596000000000000 15.2279999999999998
  0.7181980000000000  2.5463000000000000 18.5860999999999983
  1.0076300000000000  3.2411400000000001 17.1678999999999995
  4.6104000000000003  4.7724000000000002 14.9049999999999994
  5.9845800000000002  5.3352300000000001 15.0305000000000000
  1.5002200000000001  0.9751649999999999 20.9680000000000000
  2.8340000000000001  1.7160500000000001 21.5418999999999983
  8.7264700000000008 10.6664999999999992 18.5895000000000010
  7.3257599999999998 11.3262000000000000 18.2959999999999994
 -2.1339500000000000 11.0055999999999994 17.5947999999999993
 -1.6775899999999999 10.4756000000000000 18.8866000000000014
 -1.4907999999999999  7.4734400000000001 18.9376999999999995
 -0.2740820000000000  7.7629900000000003 18.0569999999999986
  4.8532599999999997  8.5648499999999999 35.7295000000000016
  3.5008599999999999  7.7638499999999997 35.7783999999999978
 -7.0732299999999997 12.6516000000000002 39.4566000000000017
  8.8943200000000004 12.6740999999999993 38.1114999999999995
  5.9428999999999998  4.2599700000000000 19.4071999999999996
  4.4927200000000003  4.3524000000000003 18.8523999999999994
 -4.3257500000000002  7.9526000000000003 36.7854000000000028
 11.4289000000000005  8.3612699999999993 35.6779000000000011
  7.4481200000000003  5.4760799999999996 35.9273000000000025
  6.5182000000000002  4.4024200000000002 36.8121999999999971
  1.3767000000000000  0.9344730000000000 23.1400000000000006
  0.1517230000000000  1.6229800000000001 24.0443999999999996
 -5.1772600000000004 12.4459999999999997 31.2422000000000004
 -6.0070499999999996 11.1623000000000001 31.0050999999999988
 13.2335999999999991  0.7039370000000000 17.4761999999999986
 14.5510000000000002  0.2226350000000000 16.9119999999999990
  9.4094300000000004 12.0832999999999995 26.9252000000000002
  9.0664499999999997 13.1973000000000003 27.7657999999999987
  3.9578600000000002 12.4527999999999999 15.0495999999999999
  4.6905799999999997 11.0901999999999994 14.9276000000000000
 10.4892000000000003  9.5717099999999995 26.2058000000000000
 10.2674000000000003  8.9404800000000009 24.8124000000000002
  6.6601900000000001  0.6450890000000000 22.6489000000000011
 -0.8534300000000000 14.3199000000000005 23.5106000000000002
  2.0814300000000001 13.5352999999999994 32.5512999999999977
  0.6937210000000000 13.8815000000000008 32.1833999999999989
  2.1019700000000001  2.2831899999999998 30.2399999999999984
  1.4320900000000001  1.7800600000000000 28.9298999999999999
  7.3992500000000003  5.7802100000000003 18.4753000000000007
  7.8570700000000002  4.4198599999999999 18.9308000000000014
 14.7020000000000000  0.5824250000000000 19.6275000000000013
  6.8935000000000004 14.1836000000000002 20.7454999999999998
  1.6916899999999999  3.6705399999999999 15.1267999999999994
  1.7726299999999999  2.0524499999999999 15.3733000000000004
  1.2173499999999999 14.5313999999999997 39.1236999999999995
  1.9177800000000000 13.0777999999999999 39.2847000000000008
 12.6478000000000002  2.8409300000000002 39.3151999999999973
 11.5470000000000006  4.2233599999999996 39.2800000000000011
  0.4292740000000000  4.0533200000000003 33.9082999999999970
  2.0741100000000001  3.9568699999999999 34.1452000000000027
 -0.9331770000000000 10.4595000000000002 34.2051999999999978
 -1.5855399999999999  9.0912600000000001 33.7314000000000007
 13.8451000000000004  3.2120199999999999 32.6561999999999983
 13.0917999999999992  4.4843099999999998 33.4461999999999975
  5.2153400000000003  5.3838999999999997 38.6539000000000001
  3.6735899999999999  5.7154800000000003 39.1311999999999998
  3.4979900000000002  8.4775700000000001 27.1596000000000011
  3.1043799999999999  7.2278599999999997 27.8425000000000011
  1.0982300000000000 11.3722999999999992 22.3094000000000001
 -0.0549687000000000 12.4955999999999996 22.7245999999999988
  5.9704100000000002  6.7280199999999999 25.1717000000000013
  6.5376399999999997  8.0419000000000000 25.8478999999999992
  8.0292100000000008 11.6336999999999993 23.6627000000000010
  8.2339599999999997 10.1195000000000004 23.3706999999999994
 11.6415000000000006  8.0283700000000007 31.0001999999999995
 -4.7782099999999996  8.3450900000000008 32.4956999999999994
 -0.1800740000000000 14.3438999999999997 17.8961000000000006
  7.2527999999999997  0.2792340000000000 19.0596999999999994
 -1.4116599999999999 14.2263999999999999 26.1371000000000002
  6.7300800000000001  0.4632370000000000 27.3776000000000010
 -2.2547799999999998  8.7973999999999997 24.7396999999999991
 -0.8430860000000000  8.6081099999999999 24.0579000000000001
  8.8765000000000001  3.7741099999999999 14.5778999999999996
  7.3467500000000001  3.6556999999999999 15.0919000000000008
  0.4261970000000000 11.8871000000000002 19.7422000000000004
 -0.4737430000000000 11.4230000000000000 21.0167000000000002
 10.1983999999999995  1.3831100000000001 35.3748999999999967
 10.6828000000000003  0.9399940000000000 34.0491999999999990
  6.4626099999999997  0.5500110000000000 34.6574999999999989
  7.5086700000000004  1.3826300000000000 35.6555999999999997
  0.2431860000000000  5.4544800000000002 29.4466000000000001
  0.4631050000000000  6.4625800000000000 30.4645000000000010
  7.9495199999999997 13.8510000000000009 24.4682999999999993
  7.2531100000000004 13.1228999999999996 25.4547999999999988
  1.6674800000000001  6.0473800000000004 36.5754999999999981
  3.1373400000000000  6.0784599999999998 37.2464999999999975
  3.9455600000000000  6.4662699999999997 18.1986999999999988
  2.6781100000000002  5.8012400000000000 18.6296999999999997
  3.3494500000000000 11.6899999999999995 21.7802000000000007
  2.6473800000000001 10.3757999999999999 21.0971000000000011
 -5.8126600000000002 13.8422999999999998 18.1217000000000006
 -6.6769400000000001 12.4492999999999991 18.3227000000000011
 -1.4332100000000001  5.3439399999999999 17.4264000000000010
 -0.9689530000000000  3.8833500000000001 17.4664000000000001
 13.5408000000000008  4.5393299999999996 14.6455000000000002
 -1.9473900000000000  5.5095799999999997 14.7289999999999992
  6.3876799999999996  0.6992610000000000 30.0543000000000013
 -3.1701999999999999 14.3625000000000007 30.5138999999999996
 -0.0212912000000000  7.9184700000000001 27.6548000000000016
  0.0460253000000000  6.3530699999999998 27.2509000000000015
 15.9693000000000005  1.0762300000000000 39.7571000000000012
  0.2295290000000000  0.2457390000000000 39.0009000000000015
 11.3076000000000008  2.1836600000000002 28.4793999999999983
 10.2262000000000004  3.2345600000000001 28.5040000000000013
 -2.7201800000000000  9.5711999999999993 14.5420999999999996
 -2.7146200000000000  9.3688699999999994 16.0681000000000012
 -3.3984999999999999 12.0397999999999996 15.8333999999999993
 -3.3306499999999999 13.0589999999999993 17.0303000000000004
  4.5233400000000001  0.5416000000000000 17.7478000000000016
 -3.2115300000000002 14.0824999999999996 18.6265000000000001
 12.3170000000000002  2.2582499999999999 31.1876999999999995
 13.5417000000000005  2.6448100000000001 30.3853000000000009
 13.7120999999999995  2.7495200000000000 37.4611999999999981
 13.9391999999999996  1.5094000000000001 38.4196000000000026
 10.7294000000000000  3.7393999999999998 35.8663000000000025
 11.7825000000000006  4.8719999999999999 35.5912000000000006
  1.9862899999999999  2.7220800000000001 38.6884999999999977
  0.5164250000000000  2.4846100000000000 38.9624999999999986
 -0.8488590000000000  9.0190500000000000 35.8267000000000024
 -0.3752040000000000  7.7168500000000000 36.3551000000000002
 -6.5587900000000001 13.8305000000000007 14.8958999999999993
 -6.7062200000000001 13.1190999999999995 16.3170000000000002
  6.1519199999999996 11.8976000000000006 33.9915000000000020
  5.0900699999999999 11.0350999999999999 34.6978000000000009
  0.8518520000000001 11.3114000000000008 26.3286000000000016
  1.4443200000000000 12.4253999999999998 27.2112000000000016
  4.8438200000000000  8.1082800000000006 16.7427999999999990
  5.2882800000000003  8.0108099999999993 18.1513999999999989
  8.6751699999999996  9.4008800000000008 38.9194000000000031
  7.0518799999999997  9.0256600000000002 39.0061000000000035
  4.6158799999999998 13.5259999999999998 32.2839999999999989
  4.1352200000000003 12.3371999999999993 33.1906999999999996
 -3.4168200000000000  9.4144400000000008 39.4450999999999965
 -4.8818099999999998 10.0228999999999999 39.3978999999999999
 -0.4993150000000000  5.2925700000000004 37.1585999999999999
 -0.5709180000000000  5.5192199999999998 35.5673999999999992
  1.3210700000000000 10.7006999999999994 33.0268000000000015
  1.0423100000000001 11.5500000000000007 34.3286999999999978
 -2.3427500000000001  6.8596500000000002 32.4500999999999991
 -1.3167000000000000  7.8297600000000003 31.9059999999999988
  7.8206600000000002  0.1645690000000000 14.8629999999999995
  9.0792699999999993  1.1757599999999999 14.5839999999999996
 -2.9736799999999999 10.7058000000000000 28.3872000000000000
 -2.3833000000000002 10.1549999999999994 29.7484999999999999
  3.0461299999999998  1.3575500000000000 14.2696000000000005
  3.5718100000000002  1.3134999999999999 15.7510999999999992
  6.5132599999999998  3.1890399999999999 38.9091000000000022
  7.2087899999999996  4.5917599999999998 38.7847000000000008
  4.3590999999999998  3.2663899999999999 20.6784999999999997
  3.6380499999999998  3.8871099999999998 21.9505000000000017
 -5.6433499999999999 11.6249000000000002 36.6433000000000035
 -4.1842899999999998 11.1883999999999997 36.2635000000000005
 12.3673000000000002  5.5286900000000001 24.6049000000000007
 11.4819999999999993  4.6239800000000004 23.6241999999999983
  1.0807500000000001  6.2521800000000001 39.5075999999999965
  1.3645600000000000  4.5806399999999998 39.4155999999999977
 11.4772999999999996  4.3064000000000000 14.2363999999999997
 11.5761000000000003  4.8856900000000003 15.6646000000000001
  8.8547899999999995  1.9143600000000001 39.4266999999999967
 10.4468999999999994  2.1399699999999999 38.9149000000000029
 11.8882999999999992  8.3821399999999997 18.0758000000000010
 -3.8397299999999999  9.4334799999999994 18.2290999999999990
 -5.9927200000000003 10.2655999999999992 18.4237000000000002
 10.3622999999999994 10.9750999999999994 19.8177999999999983
 -2.1377700000000002 13.9352000000000000 20.8946000000000005
 -1.6787000000000001 12.7797000000000001 20.0239000000000011
 -2.9925500000000000  6.9020200000000003 39.0217000000000027
 -2.1848200000000002  7.7466299999999997 37.9363999999999990
  5.9656799999999999  0.6894920000000000 38.7439999999999998
  6.3958199999999996  1.3169999999999999 37.4114999999999966
  9.0353600000000007  2.2437700000000000 37.1024999999999991
  8.1847499999999993  3.2758200000000000 36.2316000000000003
  9.3769500000000008  4.5671499999999998 26.7490999999999985
 10.8162000000000003  5.2318499999999997 26.9227999999999987
  7.6648600000000000  4.8961800000000002 23.0623000000000005
  7.0032199999999998  3.4953699999999999 23.6332999999999984
 14.7190999999999992  1.1833199999999999 35.4538999999999973
 16.1474000000000011  0.9592150000000000 35.9729000000000028
  3.7508499999999998  5.7383400000000000 23.3203999999999994
  3.6104699999999998  6.1083499999999997 21.8039999999999985
  8.4933599999999991 12.8949999999999996 33.7036999999999978
  7.6260899999999996 13.5312000000000001 34.8072000000000017
  5.2908700000000000 11.8267000000000007 18.1982999999999997
  6.0212700000000003 13.1814000000000000 18.2794999999999987
 -4.1103199999999998 13.2361000000000004 34.2256000000000000
 -4.9699999999999998 14.5086999999999993 34.7372000000000014
 13.2834000000000003  1.3407000000000000 26.9811000000000014
 12.6576000000000004  0.1287080000000000 27.6477000000000004
  8.0978800000000000  9.9243100000000002 35.6090999999999980
  7.5464500000000001  9.4808699999999995 37.0891999999999982
  9.4392300000000002  3.5835100000000000 23.5518000000000001
 10.2667999999999999  2.6174599999999999 24.3096999999999994
 -2.6837200000000001  6.8752100000000000 20.8264999999999993
 -3.1915200000000001  8.3062199999999997 20.5948999999999991
  3.7200899999999999  9.8216599999999996 23.3511999999999986
  4.4176000000000002 10.0719999999999992 24.6556999999999995
  0.1278690000000000  6.8956999999999997 22.3579000000000008
 -0.4637810000000000  8.0966500000000003 21.6060000000000016
 14.6710999999999991 -0.0074031100000000 37.3888000000000034
  4.7276600000000002 14.4055999999999997 37.5463999999999984
 -1.6711100000000001  5.3206300000000004 30.7340000000000018
 -2.6105399999999999  6.3251700000000000 29.9895999999999994
  6.1022699999999999  0.8425150000000000 32.1931999999999974
  4.9120699999999999  0.9581560000000000 33.2730000000000032
  0.8473990000000000 10.0385000000000009 36.6317000000000021
  0.6525430000000000 11.5505999999999993 36.6002999999999972
  5.8358900000000000  5.5651000000000002 30.8824000000000005
  6.3529999999999998  6.4996000000000000 29.7809999999999988
 -4.9777699999999996 10.7491000000000003 14.5066000000000006
 -5.0714600000000001 12.3049999999999997 14.6265999999999998
 -0.9391420000000000 13.4854000000000003 31.0490999999999993
 -0.3899400000000000 12.0465000000000000 31.6794000000000011
 10.0045999999999999  3.1593599999999999 32.2458000000000027
  8.7234499999999997  3.7820299999999998 33.1227999999999980
 12.5629000000000008  2.0741399999999999 35.5354999999999990
 13.6692999999999998  3.0477599999999998 35.0009000000000015
  3.1501100000000002  5.1039300000000001 35.3237000000000023
  3.9428000000000001  3.7919900000000002 35.3218000000000032
  5.2256099999999996  0.5933840000000000 25.8866000000000014
  3.6926700000000001  0.6602000000000000 25.3421999999999983
  7.3907999999999996 13.1493000000000002 14.5899999999999999
  8.7885100000000005 12.3162000000000003 14.7078000000000007
  4.5778999999999996 14.0822000000000003 25.7536999999999985
  4.7081000000000000 13.3797999999999995 24.3064999999999998
  0.9243830000000000  8.5251300000000008 31.4866999999999990
  0.4417580000000000  8.8813200000000005 30.1096000000000004
 10.0686999999999998  9.3832599999999999 30.0014000000000003
  8.9040599999999994 10.5717999999999996 30.2198999999999991
 11.5447000000000006  9.0621100000000006 16.0421000000000014
 10.5764999999999993  8.7292699999999996 14.8779000000000003
  0.0708760000000000  0.0497467000000000 31.0894000000000013
  4.2701700000000002  7.6079100000000004 21.1014000000000017
  0.7621340000000000  9.1435899999999997 17.6937999999999995
 -1.1094700000000000  5.5592699999999997 24.7310000000000016
  3.8357999999999999 11.3207000000000004 30.2982000000000014
  3.1814499999999999  5.0681900000000004 15.4161999999999999
  6.5758500000000000 14.4672000000000001 15.3194999999999997
 12.9760000000000009  4.3369000000000000 19.0031999999999996
 -1.1549799999999999  2.8530300000000000 24.3392000000000017
  7.5464599999999997  1.3359500000000000 28.6291000000000011
  2.0558000000000001  9.5280199999999997 15.0959000000000003
 -1.6975899999999999  5.1815400000000000 38.6422999999999988
  1.6125000000000000  6.9601199999999999 14.5342000000000002
  3.9441000000000002  3.0428000000000002 27.1167000000000016
  0.0884337000000000 14.2012999999999998 25.0744000000000007
  2.7988700000000000  0.1461800000000000 36.3907999999999987
  1.7712600000000001 12.9390000000000001 29.1295000000000002
  0.7417300000000000  1.0809000000000000 19.4705000000000013
  5.9459400000000002 12.5851000000000006 39.5285999999999973
 -1.8695800000000000 13.3230000000000004 39.0775000000000006
  2.0996500000000000  0.4260910000000000 25.7651000000000003
  5.4159199999999998  8.2770399999999995 15.1400000000000006
  0.6302690000000000  4.9993699999999999 26.4344000000000001
  4.8853099999999996 13.8391000000000002 29.0424000000000007
  0.6847350000000000  5.3747699999999998 22.7799000000000014
 -0.4565750000000000 10.6752000000000002 38.5180000000000007
  4.8517900000000003  2.0219700000000000 16.8907999999999987