&FORCE_EVAL
  METHOD Quickstep
#  STRESS_TENSOR ANALYTICAL
  &DFT
    BASIS_SET_FILE_NAME /data/jxzhu/BASIC_SET/BASIS_MOLOPT
    POTENTIAL_FILE_NAME /data/jxzhu/BASIC_SET/GTH_POTENTIALS 
#    CHARGE 1
#    UKS  T
#    WFN_RESTART_FILE_NAME ./q-28w-RESTART.wfn
    &MGRID
      CUTOFF 400
#      NGRIDS 5
    &END MGRID
    &QS
      EPS_DEFAULT 1.0E-13
      EXTRAPOLATION ASPC 
      EXTRAPOLATION_ORDER 2
    &END QS
    &SCF 
       SCF_GUESS  RESTART 
       EPS_SCF 1.0E-6 
       MAX_SCF 500 
       ADDED_MOS 500 
       CHOLESKY INVERSE 
       &SMEAR  ON 
         METHOD FERMI_DIRAC 
         ELECTRONIC_TEMPERATURE [K] 300 
       &END SMEAR 
       &DIAGONALIZATION 
          ALGORITHM STANDARD 
       &END DIAGONALIZATION 
       &MIXING 
           METHOD BROYDEN_MIXING 
           ALPHA   0.3 
           BETA    1.5 
           NBROYDEN  14 
       &END 
       &PRINT 
         &RESTART 
           &EACH 
               QS_SCF 50 
           &END 
           ADD_LAST NUMERIC 
         &END 
       &END 
     &END SCF 

#    &SCF
#      SCF_GUESS RESTART 
#      EPS_SCF 3.0E-7
#      MAX_SCF 50
#      &OUTER_SCF
#         EPS_SCF 3.0E-7
#         MAX_SCF 5 
#      &END
#      &OT
#         MINIMIZER DIIS 
#         PRECONDITIONER FULL_SINGLE_INVERSE
#         ENERGY_GAP 0.1
#      &END
#    &END SCF
    &XC
      &XC_FUNCTIONAL PBE
      &END XC_FUNCTIONAL
#      &XC_GRID
#         XC_SMOOTH_RHO NN50
#         XC_DERIV NN50_SMOOTH
#      &END XC_GRID
       &VDW_POTENTIAL
         DISPERSION_FUNCTIONAL PAIR_POTENTIAL
         &PAIR_POTENTIAL
            TYPE DFTD3
            PARAMETER_FILE_NAME /data/jxzhu/BASIC_SET/dftd3.dat
            REFERENCE_FUNCTIONAL PBE
         &END PAIR_POTENTIAL
      &END VDW_POTENTIAL
    &END XC

#    &POISSON
#      PERIODIC XY
#      POISSON_SOLVER ANALYTIC
#    &END POISSON

    &PRINT
#      &E_DENSITY_CUBE
#        ADD_LAST NUMERIC
#        &EACH
#          GEO_OPT 0
#        &END EACH
#      &END E_DENSITY_CUBE
      &PDOS
        COMPONENTS
        NLUMO -1 
        ADD_LAST  NUMERIC
        &EACH
#          MD 50
          GEO_OPT 0
        &END EACH
        COMMON_ITERATION_LEVELS 0
#        APPEND T
      &END PDOS

#      &MO_CUBES
#        NHOMO -1
#        NLUMO -1
#        WRITE_CUBE F
#        ADD_LAST NUMERIC
#        &EACH
#          MD 50
##          GEO_OPT 0
#        &END EACH
#      &END MO_CUBES

      &V_HARTREE_CUBE ON
         STRIDE 8 8 1
#         APPEND T
         &EACH
#           MD 50
#          GEO_OPT 0
         &END EACH
        ADD_LAST NUMERIC
      &END V_HARTREE_CUBE

   &END PRINT
  &END DFT

  &SUBSYS
    &CELL
#      A  9.611  -5.549   0.000
#      B  0   11.098  0
#      C  0   0   21.796
      ABC [angstrom]  11.246  11.246   35.940    
      ALPHA_BETA_GAMMA  90 90 90
#      PERIODIC  XY
    &END CELL
    &COORD
