
    &END COORD
    &KIND O
      BASIS_SET DZVP-MOLOPT-SR-GTH 
      POTENTIAL GTH-PBE-q6 
      ELEMENT O
    &END KIND
#    &KIND OB
#      BASIS_SET DZVP-MOLOPT-SR-GTH
#      POTENTIAL GTH-PBE-q6
#      ELEMENT O
#    &END KIND
#    &KIND OC
#      BASIS_SET DZVP-MOLOPT-SR-GTH
#      POTENTIAL GTH-PBE-q6
#      ELEMENT O
#    &END KIND
    &KIND Pt 
      BASIS_SET  DZVP-A5-Q10-323-MOL-T1-DERIVED_SET-1 
      POTENTIAL  GTH-PBE-q10
    &END KIND
    &KIND H
      BASIS_SET DZVP-MOLOPT-SR-GTH
      POTENTIAL GTH-PBE-q1
      ELEMENT H
    &END KIND
#    &KIND HB
#      BASIS_SET DZVP-MOLOPT-SR-GTH
#      POTENTIAL GTH-PBE-q1
#      ELEMENT H
#    &END KIND
#    &KIND HC
#      BASIS_SET DZVP-MOLOPT-SR-GTH
#      POTENTIAL GTH-PBE-q1
#      ELEMENT H
#    &END KIND
#    &KIND C
#      BASIS_SET DZVP-MOLOPT-SR-GTH
#      POTENTIAL GTH-PBE-q4
#    &END KIND
#    &KIND Na
#      BASIS_SET DZVP-MOLOPT-SR-GTH
#      POTENTIAL GTH-PBE-q9
#    &END KIND

  &END SUBSYS
&END FORCE_EVAL

&GLOBAL
  PROJECT pt 
  RUN_TYPE ENERGY 
  PRINT_LEVEL medium 
  WALLTIME 345000
&END GLOBAL

&MOTION
# &CONSTRAINT
#    &FIXED_ATOMS
#      LIST 
#    &END FIXED_ATOMS
# &END CONSTRAINT

#  &GEO_OPT
#    TYPE minimization
#    OPTIMIZER BFGS
#    MAX_ITER 200 
#  &END GEO_OPT

#  &MD
#    &THERMOSTAT
#      &NOSE
#        LENGTH 3
#        YOSHIDA 3
#        TIMECON 1000.
#        MTS 2
#      &END NOSE
#    &END THERMOSTAT
#    ENSEMBLE NVT
#    STEPS 20000000
#    TIMESTEP 0.5
#    TEMPERATURE 330.0
#    TEMP_TOL 50
#  &END MD

  &PRINT
   &TRAJECTORY
     &EACH
       MD 1
     &END EACH
   &END TRAJECTORY
   &VELOCITIES
     &EACH
       MD 1
     &END EACH
   &END VELOCITIES
 #  &FORCES OFF
 #  &END FORCES
   &RESTART_HISTORY 
     &EACH
       MD 1000
     &END EACH
   &END RESTART_HISTORY
   &RESTART
     BACKUP_COPIES 3
     &EACH
       MD 1
     &END EACH
   &END RESTART
#   &STRESS
#   &END STRESS
  &END PRINT

&END MOTION

#&EXT_RESTART
#   RESTART_FILE_NAME ./Pt-1.restart
##  RESTART_COUNTERS False
#&END EXT_RESTART

